Traveling Salesman Problem/TSP_generados/Aleatorio1621103307_9.tsp
NAME: Aleatorio1621103307_9.tsp
COMMENT: Randomly generated scenario
TYPE: TSP
DIMENSION: 9
EDGE_WEIGHT_TYPE: ATT
NODE_COORD_SECTION
1 27.27 13.78
2 35.87 45.22
3 8.9 16.9
4 41.42 5.75
5 1.65 8.11
6 9.73 44.2
7 25.59 33.61
8 25.03 37.55
9 32.26 22.37
