Traveling Salesman Problem/TSP_generados/Aleatorio1621103307_9.opt.tour
NAME: Aleatorio1621103307_9.opt.tour
COMMENT: Optimal solution for Aleatorio1621103307_9 (156.68213175254806)
TYPE: TOUR
DIMENSION: 9
TOUR_SECTION
1 5 3 6 2 8 7 9 4
-1
EOF
